c This is QMaxSAT 2017 based on 14.07
c This is Glucose 3.0
c This is MiniSat 2.2.0
c WARNING: for repeatability, setting FPU to use double precision
c card = mrwto, comp = 0, pmodel = 0, narr = 3, mct = 24, verb = 0
cr firstCPXsol 0 0 0
c top = 81479
c |  Number of variables:    1352                                             |
c |  Number of clauses:      30274                                            |
c |  Weight of hard clauses: 81479                                            |
c |  Number of soft clauses: 1932                                             |
c |  Number of unit soft clauses: 0                                           |
c |  Maximum Cardinality (by unit): 296598       (0           )               |
c last restart ## conflicts  :  0 245 
o 3443 | cpuTime 0.05301 s
c Sum of weights = 98866
c A number of soft clauses remained = 644
c MRWTO encoding for Pseudo-Boolean Constraints
c sizeMax=3443
c No.0 Divisor=16	generated by pow1
c No.1 Divisor=16	generated by pow1
c No.2 Divisor=16	generated by pow1
c p0= 16	p1= 16	p2= 16	
c number of digits = 4
c linkingVar[0].size = 16, linkingVar[1].size = 16, linkingVar[2].size = 14, linkingVar[3].size = 1, 
c Pseudo-Boolean Constraints: 16128 variables and 197447 clauses
c Sum of weights = 98866
c A number of soft clauses remained = 644
c MRWTO encoding for Pseudo-Boolean Constraints
c sizeMax=3443
c No.0 Divisor=16	generated by pow1
c No.1 Divisor=16	generated by pow1
c No.2 Divisor=16	generated by pow1
c p0= 16	p1= 16	p2= 16	
c number of digits = 4
c linkingVar[0].size = 16, linkingVar[1].size = 16, linkingVar[2].size = 14, linkingVar[3].size = 1, 
c Pseudo-Boolean Constraints: 16128 variables and 197447 clauses
c Sum of weights = 98866
c A number of soft clauses remained = 644
c MRWTO encoding for Pseudo-Boolean Constraints
c sizeMax=3443
c No.0 Divisor=16	generated by pow1
c No.1 Divisor=16	generated by pow1
c No.2 Divisor=16	generated by pow1
c p0= 16	p1= 16	p2= 16	
c number of digits = 4
c linkingVar[0].size = 16, linkingVar[1].size = 16, linkingVar[2].size = 14, linkingVar[3].size = 1, 
c Pseudo-Boolean Constraints: 16128 variables and 197447 clauses
c last restart ## conflicts  :  135 1629 
o 3103 | cpuTime 0.158508 s
c last restart ## conflicts  :  138 2555 
o 1894 | cpuTime 0.175518 s
c last restart ## conflicts  :  368 1599 
o 1742 | cpuTime 0.237512 s
c last restart ## conflicts  :  442 1119 
o 1549 | cpuTime 0.485406 s
c last restart ## conflicts  :  2173 1199 
o 1537 | cpuTime 0.607713 s
c last restart ## conflicts  :  75 1606 
o 1142 | cpuTime 0.617891 s
c last restart ## conflicts  :  4490 1542 
o 1019 | cpuTime 1.38929 s
c last restart ## conflicts  :  337 996 
o 1000 | cpuTime 2.20563 s
c last restart ## conflicts  :  364 839 
o 886 | cpuTime 11.892 s
c last restart ## conflicts  :  99 1088 
o 864 | cpuTime 145.268 s
c last restart ## conflicts  :  2080 860 
o 855 | cpuTime 370.767 s
c last restart ## conflicts  :  154 854 
o 853 | cpuTime 436.083 s
c last restart ## conflicts  :  409 973 
o 849 | cpuTime 776.337 s
c last restart ## conflicts  :  2774 786 
o 841 | cpuTime 1016.49 s
c last restart ## conflicts  :  602 1054 
o 827 | cpuTime 1091.65 s
c last restart ## conflicts  :  244 852 
o 814 | cpuTime 3419.46 s
s UNKNOWN
c Search is stopped by a limit (maybe time-limit)
cr positiVarArr: [ | 17(1->15) | 31(1->3) | 70(1->16) | 100(2->20) | 113(3->7) | 144(4->12) | 168(5->10) | 208(6->24) | 231(7->21) | 236(8->1) | 285(9->23) | 305(10->17) | 322(11->8) | 339(12->1) | 375(13->9) | 405(14->13) | 429(15->11) | 450(16->6) | 472(17->2) | 515(18->19) | 544(19->22) | 562(20->14) | 592(21->18) | 601(22->1) | 630(23->4) | 657(24->5) | ]
cr the 1-th chain: [ 1->15->11->8->1 ] (#non-depot=3) {#cumul.=4}
cr the 2-th chain: [ 1->3->7->21->18->19->22->1 ] (#non-depot=6) {#cumul.=10}
cr the 3-th chain: [ 1->16->6->24->5->10->17->2->20->14->13->9->23->4->12->1 ] (#non-depot=14) {#cumul.=24}
c Latest Answer = 0 by 17 loops
c restarts              : 63911
c conflicts             : 21888196       (6088 /sec)
c decisions             : 48453724       (0.00 % random) (13478 /sec)
c propagations          : 15511873266    (4314748 /sec)
c conflict literals     : 1834571655     (41.98 % deleted)
c Memory used           : 409.00 MB
c CPU time              : 3595.08 s
